Problem:    
Rows:       105
Columns:    45 (34 integer, 34 binary)
Non-zeros:  302
Status:     INTEGER OPTIMAL
Objective:  value = 17.475484 (MINimum)

   No.   Row name        Activity     Lower bound   Upper bound
------ ------------    ------------- ------------- -------------
     1 r.5                   17.4755             0               
     2 r.6                   5.80618      -1995.09               
     3 r.7                   2017.48             0               
     4 r.8                  -1982.52      -1995.89               
     5 r.9                   2017.48             0               
     6 r.10                 -1986.24      -1992.05               
     7 r.11                  17.4755             0               
     8 r.12                  9.97068      -1991.99               
     9 r.13                  17.4755             0               
    10 r.14                 -1977.58      -1995.06               
    11 r.15                  2017.48             0               
    12 r.16                 -1986.63       -1996.6               
    13 r.17                  2017.48             0               
    14 r.18                 -1982.52      -1996.28               
    15 r.19                  17.4755             0               
    16 r.20                  1.95998       -1998.3               
    17 r.21                  2017.48             0               
    18 r.22                  -1999.7       -1999.7               
    19 r.23                  17.4755             0               
    20 r.24                 0.299444      -1998.85               
    21 r.25                        1             1             = 
    22 r.26                        1             1             = 
    23 r.27                        1             1             = 
    24 r.28                        1             1             = 
    25 r.29                        1             1             = 
    26 r.30                   7.9525        7.9525               
    27 r.31                  -7.9525      -1995.09               
    28 r.32                   1992.5        8.0107               
    29 r.33                  -1992.5      -1995.89               
    30 r.34                  16.6094        4.9401               
    31 r.35                 -16.6094      -1995.09               
    32 r.36                  1995.89        3.3979               
    33 r.37                 -1995.89      -1995.89               
    34 r.38                  11.6693        3.7168               
    35 r.39                 -11.6693      -1995.09               
    36 r.40                  1984.48        1.7047               
    37 r.41                 -1984.48      -1995.89               
    38 r.42                  5.50674      -1990.51               
    39 r.43                 -1982.82      -1986.22               
    40 r.44                  5.50674      -1990.51               
    41 r.45                 -1982.82      -1986.22               
    42 r.46                  1992.05         4.907               
    43 r.47                 -1992.05      -1992.05               
    44 r.48                   7.5048        4.1069               
    45 r.49                  -7.5048      -1991.99               
    46 r.50                   8.6569        4.9401               
    47 r.51                  -8.6569      -1992.05               
    48 r.52                   3.3979        3.3979               
    49 r.53                  -3.3979      -1991.99               
    50 r.54                   3.7168        3.7168               
    51 r.55                  -3.7168      -1992.05               
    52 r.56                  1991.99        1.7047               
    53 r.57                 -1991.99      -1991.99               
    54 r.58                 -1986.54      -1987.47               
    55 r.59                  9.67124      -1982.32               
    56 r.60                 -1986.54      -1987.47               
    57 r.61                  9.67124      -1982.32               
    58 r.62                  1983.39         4.907               
    59 r.63                 -1983.39      -1995.06               
    60 r.64                   4.1069        4.1069               
    61 r.65                  -4.1069       -1996.6               
    62 r.66                  1991.34        7.9525               
    63 r.67                 -1991.34      -1995.06               
    64 r.68                   1996.6        8.0107               
    65 r.69                  -1996.6       -1996.6               
    66 r.70                  1995.06        3.7168               
    67 r.71                 -1995.06      -1995.06               
    68 r.72                  1988.59        1.7047               
    69 r.73                 -1988.59       -1996.6               
    70 r.74                 -1977.88      -1990.48               
    71 r.75                 -1986.93      -1986.93               
    72 r.76                 -1977.88      -1990.48               
    73 r.77                 -1986.93      -1986.93               
    74 r.78                  1988.33         4.907               
    75 r.79                 -1988.33      -1996.28               
    76 r.80                  15.5155        4.1069               
    77 r.81                 -15.5155       -1998.3               
    78 r.82                  1996.28        7.9525               
    79 r.83                 -1996.28      -1996.28               
    80 r.84                   8.0107        8.0107               
    81 r.85                  -8.0107       -1998.3               
    82 r.86                   4.9401        4.9401               
    83 r.87                  -4.9401      -1996.28               
    84 r.88                  11.4086        3.3979               
    85 r.89                 -11.4086       -1998.3               
    86 r.90                 -1982.82       -1991.7               
    87 r.91                  1.66054      -1988.62               
    88 r.92                 -1982.82       -1991.7               
    89 r.93                  1.66054      -1988.62               
    90 r.94                  5.50674      -1990.51               
    91 r.95                 -1982.82      -1986.22               
    92 r.96                  5.50674      -1990.51               
    93 r.97                 -1982.82      -1986.22               
    94 r.98                 -1986.54      -1987.47               
    95 r.99                  9.67124      -1982.32               
    96 r.100                -1986.54      -1987.47               
    97 r.101                 9.67124      -1982.32               
    98 r.102                -1977.88      -1990.48               
    99 r.103                -1986.93      -1986.93               
   100 r.104                -1977.88      -1990.48               
   101 r.105                -1986.93      -1986.93               
   102 r.106                -1982.82       -1991.7               
   103 r.107                 1.66054      -1988.62               
   104 r.108                -1982.82       -1991.7               
   105 r.109                 1.66054      -1988.62               

   No. Column name       Activity     Lower bound   Upper bound
------ ------------    ------------- ------------- -------------
     1 tt                    17.4755             0               
     2 s_1_1        *              0             0             1 
     3 t_1_1                 11.6693             0               
     4 s_2_1        *              1             0             1 
     5 t_2_1                       0             0               
     6 s_1_2        *              1             0             1 
     7 t_1_2                  3.7168             0               
     8 s_2_2        *              0             0             1 
     9 t_2_2                  7.5048             0               
    10 s_1_3        *              0             0             1 
    11 t_1_3                 1995.06             0               
    12 s_2_3        *              1             0             1 
    13 t_2_3                  4.1069             0               
    14 s_1_4        *              1             0             1 
    15 t_1_4                       0             0               
    16 s_2_4        *              0             0             1 
    17 t_2_4                 15.5155             0               
    18 s_1_5        *              1             0             1 
    19 t_1_5                  17.176             0               
    20 s_2_5        *              0             0             1 
    21 t_2_5                  17.176             0               
    22 u_1_1_2      *              0             0             1 
    23 u_2_1_2      *              1             0             1 
    24 u_1_1_3      *              1             0             1 
    25 u_2_1_3      *              1             0             1 
    26 u_1_1_4      *              0             0             1 
    27 u_2_1_4      *              1             0             1 
    28 u_1_2_1      *              1             0             1 
    29 u_2_2_1      *              0             0             1 
    30 u_1_2_3      *              1             0             1 
    31 u_2_2_3      *              0             0             1 
    32 u_1_2_4      *              0             0             1 
    33 u_2_2_4      *              1             0             1 
    34 u_1_3_1      *              0             0             1 
    35 u_2_3_1      *              0             0             1 
    36 u_1_3_2      *              0             0             1 
    37 u_2_3_2      *              1             0             1 
    38 u_1_3_4      *              0             0             1 
    39 u_2_3_4      *              1             0             1 
    40 u_1_4_1      *              1             0             1 
    41 u_2_4_1      *              0             0             1 
    42 u_1_4_2      *              1             0             1 
    43 u_2_4_2      *              0             0             1 
    44 u_1_4_3      *              1             0             1 
    45 u_2_4_3      *              0             0             1 

Integer feasibility conditions:

KKT.PE: max.abs.err = 0.00e+00 on row 0
        max.rel.err = 0.00e+00 on row 0
        High quality

KKT.PB: max.abs.err = 7.90e-14 on row 50
        max.rel.err = 1.68e-14 on row 50
        High quality

End of output
